(set-logic QF_S)
(declare-fun var0 () String)
(assert (str.in.re var0 (re.++ (re.* (re.union (str.to.re "0") (str.to.re "1"))) (re.++ (re.* (re.union (str.to.re "222") (str.to.re "333"))) (re.++ (re.+ (re.union (str.to.re "444") (str.to.re "55"))) (re.++ (re.+ (re.union (str.to.re "6") (str.to.re "777"))) (re.++ (re.union (re.union (str.to.re "888") (str.to.re "9")) (re.union (str.to.re "aaa") (str.to.re "bbb"))) (re.++ (re.union (re.union (str.to.re "cc") (str.to.re "ddd")) (re.union (str.to.re "eee") (str.to.re "f"))) (re.++ (re.* (re.* (str.to.re "gg"))) (re.++ (re.+ (re.* (str.to.re "hh"))) (re.++ (re.* (re.+ (str.to.re "ii"))) (re.++ (re.+ (re.union (str.to.re "jjj") (str.to.re "k"))) (re.++ (re.+ (re.+ (str.to.re "ll"))) (re.++ (re.* (re.* (str.to.re "m"))) (re.++ (re.union (re.union (str.to.re "nn") (str.to.re "o")) (re.union (str.to.re "pp") (str.to.re "q"))) (re.++ (re.union (re.union (str.to.re "r") (str.to.re "s")) (re.union (str.to.re "t") (str.to.re "uu"))) (re.++ (re.+ (re.+ (str.to.re "vvv"))) (re.++ (re.union (re.union (str.to.re "w") (str.to.re "xxx")) (re.union (str.to.re "yyy") (str.to.re "zz"))) (re.++ (re.* (re.+ (str.to.re "AAA"))) (re.++ (re.+ (re.* (str.to.re "BB"))) (re.++ (re.union (re.* (str.to.re "CCC")) (re.* (str.to.re "DDD"))) (re.++ (re.* (re.* (str.to.re "EE"))) (re.++ (re.union (re.union (str.to.re "FF") (str.to.re "GG")) (re.union (str.to.re "H") (str.to.re "I"))) (re.++ (re.+ (re.union (str.to.re "JJJ") (str.to.re "K"))) (re.++ (re.+ (re.+ (str.to.re "LLL"))) (re.++ (re.+ (re.+ (str.to.re "MM"))) (re.++ (re.* (re.* (str.to.re "N"))) (re.++ (re.union (re.union (str.to.re "O") (str.to.re "PPP")) (re.union (str.to.re "Q") (str.to.re "RRR"))) (re.++ (re.+ (re.+ (str.to.re "SSS"))) (re.++ (re.+ (re.+ (str.to.re "TTT"))) (re.++ (re.+ (re.+ (str.to.re "UU"))) (re.++ (re.* (re.union (str.to.re "VVV") (str.to.re "WWW"))) (re.++ (re.* (re.union (str.to.re "XX") (str.to.re "YYY"))) (re.++ (re.+ (re.* (str.to.re "Z"))) (re.++ (re.+ (re.union (str.to.re "!") (str.to.re """"""""))) (re.++ (re.+ (re.* (str.to.re "###"))) (re.++ (re.* (re.+ (str.to.re "$$"))) (re.++ (re.* (re.union (str.to.re "%%%") (str.to.re "&&&"))) (re.++ (re.* (re.* (str.to.re "'''"))) (re.++ (re.* (re.+ (str.to.re "("))) (re.++ (re.* (re.* (str.to.re ")"))) (re.++ (re.union (re.+ (str.to.re "**")) (re.+ (str.to.re "++"))) (re.++ (re.+ (re.* (str.to.re ",,,"))) (re.++ (re.+ (re.* (str.to.re "--"))) (re.++ (re.union (re.* (str.to.re "..")) (re.* (str.to.re "//"))) (re.++ (re.union (re.union (str.to.re ":") (str.to.re ";")) (re.union (str.to.re "<<") (str.to.re "=="))) (re.++ (re.union (re.union (str.to.re ">") (str.to.re "??")) (re.union (str.to.re "@@") (str.to.re "[[["))) (re.++ (re.+ (re.* (str.to.re "\\\\"))) (re.++ (re.+ (re.* (str.to.re "]]]"))) (re.++ (re.union (re.* (str.to.re "^")) (re.* (str.to.re "__"))) (re.++ (re.* (re.union (str.to.re "``") (str.to.re "{"))) (re.++ (re.union (re.union (str.to.re "|") (str.to.re "}")) (re.union (str.to.re "~~~") (str.to.re "00"))) (re.++ (re.* (re.* (str.to.re "1"))) (re.++ (re.+ (re.* (str.to.re "222"))) (re.++ (re.* (re.* (str.to.re "333"))) (re.++ (re.* (re.* (str.to.re "444"))) (re.++ (re.union (re.+ (str.to.re "555")) (re.+ (str.to.re "66"))) (re.++ (re.union (re.* (str.to.re "777")) (re.* (str.to.re "88"))) (re.++ (re.union (re.union (str.to.re "9") (str.to.re "aa")) (re.union (str.to.re "bbb") (str.to.re "c"))) (re.++ (re.+ (re.+ (str.to.re "ddd"))) (re.++ (re.* (re.union (str.to.re "eee") (str.to.re "f"))) (re.++ (re.union (re.* (str.to.re "ggg")) (re.* (str.to.re "h"))) (re.++ (re.union (re.* (str.to.re "i")) (re.* (str.to.re "jjj"))) (re.++ (re.union (re.union (str.to.re "k") (str.to.re "l")) (re.union (str.to.re "mm") (str.to.re "nn"))) (re.++ (re.union (re.union (str.to.re "oo") (str.to.re "ppp")) (re.union (str.to.re "qqq") (str.to.re "rr"))) (re.++ (re.+ (re.union (str.to.re "ss") (str.to.re "t"))) (re.++ (re.+ (re.union (str.to.re "uuu") (str.to.re "vvv"))) (re.++ (re.union (re.* (str.to.re "ww")) (re.* (str.to.re "x"))) (re.++ (re.+ (re.union (str.to.re "yy") (str.to.re "z"))) (re.++ (re.+ (re.+ (str.to.re "AA"))) (re.++ (re.union (re.+ (str.to.re "BBB")) (re.+ (str.to.re "CCC"))) (re.++ (re.union (re.* (str.to.re "DDD")) (re.* (str.to.re "EE"))) (re.++ (re.* (re.* (str.to.re "F"))) (re.++ (re.union (re.union (str.to.re "GGG") (str.to.re "HHH")) (re.union (str.to.re "III") (str.to.re "JJ"))) (re.++ (re.* (re.union (str.to.re "KKK") (str.to.re "L"))) (re.++ (re.union (re.+ (str.to.re "MM")) (re.+ (str.to.re "N"))) (re.++ (re.* (re.+ (str.to.re "OOO"))) (re.++ (re.* (re.+ (str.to.re "PP"))) (re.++ (re.+ (re.+ (str.to.re "QQQ"))) (re.++ (re.union (re.union (str.to.re "RRR") (str.to.re "S")) (re.union (str.to.re "T") (str.to.re "UUU"))) (re.++ (re.union (re.* (str.to.re "VV")) (re.* (str.to.re "W"))) (re.++ (re.+ (re.union (str.to.re "X") (str.to.re "YYY"))) (re.+ (re.union (str.to.re "ZZ") (str.to.re "!!!")))))))))))))))))))))))))))))))))))))))))))))))))))))))))))))))))))))))))))))))))))))
(assert (not (str.in.re var0 (re.++ (re.* (re.union (str.to.re "0") (str.to.re "11"))) (re.++ (re.union (re.+ (str.to.re "2")) (re.+ (str.to.re "333"))) (re.++ (re.+ (re.* (str.to.re "4"))) (re.++ (re.* (re.+ (str.to.re "55"))) (re.++ (re.* (re.union (str.to.re "666") (str.to.re "7"))) (re.++ (re.+ (re.+ (str.to.re "888"))) (re.++ (re.* (re.* (str.to.re "999"))) (re.++ (re.* (re.* (str.to.re "a"))) (re.++ (re.+ (re.union (str.to.re "b") (str.to.re "cc"))) (re.++ (re.+ (re.* (str.to.re "d"))) (re.++ (re.* (re.* (str.to.re "ee"))) (re.++ (re.union (re.+ (str.to.re "f")) (re.+ (str.to.re "g"))) (re.++ (re.union (re.* (str.to.re "hh")) (re.* (str.to.re "ii"))) (re.++ (re.union (re.* (str.to.re "jjj")) (re.* (str.to.re "kk"))) (re.++ (re.+ (re.* (str.to.re "lll"))) (re.++ (re.* (re.* (str.to.re "mmm"))) (re.++ (re.* (re.* (str.to.re "n"))) (re.++ (re.union (re.union (str.to.re "oo") (str.to.re "pp")) (re.union (str.to.re "qq") (str.to.re "rrr"))) (re.++ (re.union (re.+ (str.to.re "s")) (re.+ (str.to.re "t"))) (re.++ (re.+ (re.union (str.to.re "uu") (str.to.re "v"))) (re.++ (re.* (re.+ (str.to.re "ww"))) (re.++ (re.+ (re.union (str.to.re "xx") (str.to.re "yyy"))) (re.++ (re.* (re.+ (str.to.re "zz"))) (re.++ (re.* (re.* (str.to.re "AAA"))) (re.++ (re.+ (re.union (str.to.re "BBB") (str.to.re "CC"))) (re.++ (re.union (re.union (str.to.re "D") (str.to.re "E")) (re.union (str.to.re "FF") (str.to.re "GGG"))) (re.++ (re.* (re.* (str.to.re "H"))) (re.++ (re.+ (re.union (str.to.re "II") (str.to.re "JJ"))) (re.++ (re.union (re.union (str.to.re "K") (str.to.re "LLL")) (re.union (str.to.re "M") (str.to.re "NNN"))) (re.++ (re.union (re.union (str.to.re "OO") (str.to.re "PP")) (re.union (str.to.re "QQQ") (str.to.re "R"))) (re.++ (re.union (re.union (str.to.re "SSS") (str.to.re "TT")) (re.union (str.to.re "U") (str.to.re "VVV"))) (re.++ (re.+ (re.+ (str.to.re "W"))) (re.++ (re.+ (re.+ (str.to.re "XXX"))) (re.++ (re.* (re.* (str.to.re "Y"))) (re.++ (re.union (re.* (str.to.re "ZZ")) (re.* (str.to.re "!!"))) (re.++ (re.+ (re.+ (str.to.re """"""""))) (re.++ (re.union (re.union (str.to.re "#") (str.to.re "$$")) (re.union (str.to.re "%%%") (str.to.re "&&"))) (re.++ (re.+ (re.union (str.to.re "''") (str.to.re "("))) (re.++ (re.union (re.* (str.to.re ")")) (re.* (str.to.re "*"))) (re.++ (re.+ (re.* (str.to.re "++"))) (re.++ (re.* (re.+ (str.to.re ",,,"))) (re.++ (re.* (re.* (str.to.re "---"))) (re.++ (re.* (re.+ (str.to.re ".."))) (re.++ (re.union (re.+ (str.to.re "//")) (re.+ (str.to.re ":"))) (re.++ (re.+ (re.+ (str.to.re ";;;"))) (re.++ (re.union (re.* (str.to.re "<<")) (re.* (str.to.re "=="))) (re.++ (re.* (re.+ (str.to.re ">>"))) (re.++ (re.union (re.* (str.to.re "???")) (re.* (str.to.re "@@@"))) (re.++ (re.union (re.* (str.to.re "[")) (re.* (str.to.re "\\\\"))) (re.++ (re.+ (re.* (str.to.re "]]]"))) (re.++ (re.* (re.+ (str.to.re "^^"))) (re.++ (re.union (re.+ (str.to.re "___")) (re.+ (str.to.re "``"))) (re.++ (re.+ (re.union (str.to.re "{{") (str.to.re "|||"))) (re.++ (re.+ (re.union (str.to.re "}") (str.to.re "~~"))) (re.++ (re.union (re.* (str.to.re "00")) (re.* (str.to.re "1"))) (re.++ (re.union (re.+ (str.to.re "22")) (re.+ (str.to.re "333"))) (re.++ (re.union (re.* (str.to.re "44")) (re.* (str.to.re "5"))) (re.++ (re.* (re.+ (str.to.re "6"))) (re.++ (re.union (re.union (str.to.re "77") (str.to.re "88")) (re.union (str.to.re "99") (str.to.re "a"))) (re.++ (re.* (re.union (str.to.re "bb") (str.to.re "c"))) (re.++ (re.+ (re.union (str.to.re "ddd") (str.to.re "eee"))) (re.++ (re.+ (re.* (str.to.re "fff"))) (re.++ (re.+ (re.+ (str.to.re "gg"))) (re.++ (re.union (re.* (str.to.re "hhh")) (re.* (str.to.re "iii"))) (re.++ (re.+ (re.* (str.to.re "jj"))) (re.++ (re.* (re.+ (str.to.re "kkk"))) (re.++ (re.union (re.+ (str.to.re "l")) (re.+ (str.to.re "mm"))) (re.++ (re.* (re.union (str.to.re "nnn") (str.to.re "oo"))) (re.++ (re.union (re.* (str.to.re "pp")) (re.* (str.to.re "qqq"))) (re.++ (re.+ (re.* (str.to.re "r"))) (re.++ (re.* (re.+ (str.to.re "ss"))) (re.++ (re.+ (re.union (str.to.re "tt") (str.to.re "u"))) (re.++ (re.* (re.* (str.to.re "vvv"))) (re.++ (re.union (re.union (str.to.re "w") (str.to.re "xx")) (re.union (str.to.re "yyy") (str.to.re "z"))) (re.++ (re.+ (re.* (str.to.re "AA"))) (re.++ (re.* (re.union (str.to.re "B") (str.to.re "CCC"))) (re.++ (re.union (re.union (str.to.re "DDD") (str.to.re "E")) (re.union (str.to.re "FF") (str.to.re "GGG"))) (re.++ (re.+ (re.* (str.to.re "HH"))) (re.++ (re.+ (re.+ (str.to.re "I"))) (re.++ (re.union (re.* (str.to.re "JJJ")) (re.* (str.to.re "KKK"))) (re.union (re.union (str.to.re "L") (str.to.re "M")) (re.union (str.to.re "NN") (str.to.re "O"))))))))))))))))))))))))))))))))))))))))))))))))))))))))))))))))))))))))))))))))))))))
(check-sat)